c preprocessed version of celar05-wpp.dgf-020, 47 vertices, 271 edges
p td 47 271
0 1
0 7
0 8
0 21
0 30
0 22
0 31
0 32
0 33
0 40
0 42
0 45
0 43
0 46
0 4
0 9
0 23
2 1
1 3
1 7
1 8
1 10
1 12
1 21
1 13
1 30
1 23
1 32
1 35
1 36
1 33
1 37
1 45
1 46
1 9
1 14
1 44
1 42
2 3
2 7
2 8
2 10
2 21
2 30
2 23
2 31
2 33
2 42
2 43
2 44
4 3
5 3
3 7
3 8
3 10
3 12
3 21
3 25
3 34
3 30
3 32
3 35
3 36
3 33
3 44
3 43
3 9
3 6
3 29
4 5
4 7
4 11
4 6
4 14
4 29
4 32
4 23
4 46
5 6
5 7
5 11
5 29
5 33
5 46
7 6
9 6
8 6
11 6
10 6
12 6
6 13
6 14
6 33
6 29
7 8
7 10
7 21
7 22
7 23
7 29
7 44
7 45
7 46
7 12
7 13
7 14
7 30
7 32
7 42
7 25
7 34
7 35
7 36
7 33
9 8
8 10
8 12
8 21
8 13
8 25
8 34
8 19
8 20
8 30
8 24
8 22
8 23
8 31
8 29
8 32
8 36
8 33
8 37
8 42
8 45
8 43
8 46
8 40
8 18
9 10
9 13
9 25
9 34
9 19
9 20
9 30
9 24
9 23
9 41
9 39
9 40
9 38
9 18
11 10
10 21
10 13
10 14
10 45
10 12
10 32
11 12
11 13
11 14
11 29
11 39
12 13
12 14
12 33
12 46
12 32
13 14
13 15
13 27
13 29
13 40
13 33
14 15
14 27
14 29
14 40
14 33
16 15
15 27
15 26
15 28
39 15
17 16
16 18
16 41
16 39
17 18
17 41
17 39
17 27
19 18
18 41
19 20
19 24
19 41
19 40
21 20
20 24
20 41
20 39
20 40
21 22
21 39
21 33
21 37
21 38
21 45
21 46
22 23
22 44
22 45
22 46
24 23
23 45
23 46
25 24
24 41
24 40
26 25
25 35
25 36
25 33
25 41
34 25
27 26
26 34
39 26
26 28
27 28
39 27
29 28
28 33
28 39
30 29
29 32
29 33
29 45
29 46
30 31
30 32
30 33
30 42
30 43
31 32
31 33
31 44
31 42
31 43
32 33
32 42
34 33
35 33
36 33
33 38
33 42
33 43
34 35
34 36
35 36
35 37
36 37
39 38
40 38
41 40
42 43
44 45
45 46
